c n orig vars 311
p cnf 505 1021
-391 0
312 -58 0
312 -61 0
-312 58 61 0
313 -111 0
313 -110 0
313 -109 0
-313 111 110 109 0
-314 476 0
-314 315 0
314 -476 -315 0
315 -319 0
315 -312 0
315 -473 0
315 -431 0
315 -313 0
315 -504 0
315 -405 0
-315 319 312 473 431 313 504 405 0
316 -463 0
316 -484 0
316 -483 0
316 -347 0
316 -407 0
316 -462 0
316 -13 0
-316 463 484 483 347 407 462 13 0
-317 452 0
-317 362 0
317 -452 -362 0
362 -324 0
362 -325 0
362 -487 0
362 -486 0
362 -312 0
362 -485 0
362 -471 0
362 -455 0
362 -484 0
362 -483 0
362 -328 0
362 -482 0
362 -481 0
362 -480 0
362 -495 0
362 -23 0
362 -22 0
-362 324 325 487 486 312 485 471 455 484 483 328 482 481 480 495 23 22 0
319 -308 0
319 -307 0
-319 308 307 0
-320 395 0
-320 300 0
320 -395 -300 0
-321 373 0
-321 343 0
321 -373 -343 0
322 -66 0
322 -63 0
-322 66 63 0
323 -303 0
323 -302 0
323 -309 0
-323 303 302 309 0
324 -177 0
324 -176 0
324 -179 0
324 -178 0
324 -174 0
324 -173 0
324 -199 0
324 -198 0
324 -201 0
324 -200 0
324 -203 0
324 -202 0
324 -205 0
324 -204 0
324 -207 0
324 -206 0
324 -168 0
324 -169 0
-324 177 176 179 178 174 173 199 198 201 200 203 202 205 204 207 206 168 169 0
325 -183 0
325 -182 0
-325 183 182 0
326 -454 0
326 -457 0
326 -415 0
326 -348 0
326 -347 0
326 -350 0
326 -414 0
326 -443 0
326 -317 0
326 -494 0
-326 454 457 415 348 347 350 414 443 317 494 0
-327 414 0
327 -414 0
328 -36 0
328 -37 0
-328 36 37 0
329 -34 0
329 -35 0
329 -32 0
329 -33 0
329 -30 0
-329 34 35 32 33 30 0
330 -82 0
330 -81 0
330 -80 0
330 -79 0
330 -38 0
330 -39 0
-330 82 81 80 79 38 39 0
331 -330 0
331 -329 0
331 -328 0
331 -336 0
331 -335 0
331 -505 0
-331 330 329 328 336 335 505 0
-332 369 0
-332 470 0
332 -369 -470 0
-333 326 0
-333 445 0
333 -326 -445 0
334 -234 0
334 -231 0
334 -232 0
334 -229 0
334 -230 0
334 -227 0
334 -228 0
334 -284 0
334 -285 0
334 -286 0
334 -287 0
334 -288 0
334 -289 0
334 -290 0
334 -291 0
334 -276 0
334 -277 0
334 -11 0
334 -10 0
-334 234 231 232 229 230 227 228 284 285 286 287 288 289 290 291 276 277 11 10 0
-318 358 0
-318 250 0
318 -358 -250 0
-335 465 0
-335 464 0
335 -465 -464 0
-336 425 0
-336 296 0
336 -425 -296 0
337 -364 0
337 -363 0
-337 364 363 0
338 -181 0
338 -180 0
-338 181 180 0
-339 373 0
-339 370 0
-339 340 0
-339 345 0
339 -373 -370 -340 -345 0
340 -249 0
340 -253 0
-340 249 253 0
-341 373 0
-341 342 0
341 -373 -342 0
342 -254 0
342 -253 0
-342 254 253 0
343 -212 0
343 -253 0
-343 212 253 0
-344 337 0
-344 252 0
344 -337 -252 0
345 -257 0
345 -213 0
-345 257 213 0
346 -338 0
346 -423 0
-346 338 423 0
347 -245 0
347 -238 0
-347 245 238 0
348 -239 0
348 -240 0
348 -241 0
348 -246 0
348 -247 0
348 -268 0
348 -267 0
348 -270 0
348 -269 0
-348 239 240 241 246 247 268 267 270 269 0
-349 398 0
-349 296 0
349 -398 -296 0
350 -243 0
350 -244 0
-350 243 244 0
-351 384 0
-351 385 0
351 -384 -385 0
-352 411 0
-352 327 0
352 -411 -327 0
-353 356 0
353 -356 0
354 -53 0
354 -305 0
354 -304 0
-354 53 305 304 0
-355 428 0
-355 142 0
355 -428 -142 0
356 -131 0
356 -128 0
356 -129 0
-356 131 128 129 0
357 -217 0
357 -213 0
-357 217 213 0
358 -360 0
358 -359 0
-358 360 359 0
-359 373 0
-359 370 0
-359 343 0
-359 357 0
359 -373 -370 -343 -357 0
360 -218 0
360 -215 0
-360 218 215 0
-361 416 0
361 -416 0
-423 370 0
-423 357 0
423 -370 -357 0
-363 370 0
-363 366 0
363 -370 -366 0
364 -216 0
364 -219 0
-364 216 219 0
-365 367 0
-365 258 0
365 -367 -258 0
366 -214 0
366 -213 0
-366 214 213 0
367 -393 0
367 -359 0
-367 393 359 0
-368 354 0
368 -354 0
369 -377 0
369 -378 0
369 -348 0
369 -347 0
369 -350 0
369 -328 0
369 -499 0
369 -349 0
369 -352 0
369 -351 0
-369 377 378 348 347 350 328 499 349 352 351 0
-370 402 0
370 -402 0
-371 368 0
-371 143 0
371 -368 -143 0
372 -19 0
372 -16 0
-372 19 16 0
-373 436 0
373 -436 0
-374 375 0
-374 372 0
-374 373 0
-374 370 0
374 -375 -372 -373 -370 0
375 -139 0
375 -138 0
-375 139 138 0
376 -306 0
376 -311 0
-376 306 311 0
377 -194 0
377 -197 0
377 -196 0
377 -191 0
377 -190 0
-377 194 197 196 191 190 0
378 -3 0
378 -8 0
378 -9 0
378 -6 0
378 -7 0
378 -97 0
-378 3 8 9 6 7 97 0
379 -487 0
379 -486 0
379 -312 0
379 -485 0
379 -471 0
379 -484 0
379 -400 0
379 -481 0
379 -410 0
379 -23 0
-379 487 486 312 485 471 484 400 481 410 23 0
380 -324 0
380 -325 0
380 -455 0
380 -483 0
380 -468 0
380 -482 0
380 -22 0
-380 324 325 455 483 468 482 22 0
381 -310 0
381 -130 0
-381 310 130 0
382 -127 0
382 -124 0
382 -125 0
382 -117 0
382 -118 0
382 -226 0
382 -225 0
382 -123 0
382 -119 0
382 -222 0
382 -221 0
382 -224 0
382 -223 0
382 -149 0
382 -233 0
382 -46 0
382 -47 0
382 -48 0
382 -49 0
382 -42 0
382 -43 0
-382 127 124 125 117 118 226 225 123 119 222 221 224 223 149 233 46 47 48 49 42 43 0
-383 389 0
-383 258 0
383 -389 -258 0
384 -487 0
384 -486 0
384 -312 0
384 -485 0
384 -471 0
384 -484 0
384 -400 0
384 -318 0
384 -410 0
384 -255 0
-384 487 486 312 485 471 484 400 318 410 255 0
385 -324 0
385 -325 0
385 -455 0
385 -483 0
385 -468 0
385 -344 0
385 -251 0
-385 324 325 455 483 468 344 251 0
-386 387 0
-386 452 0
386 -387 -452 0
387 -324 0
387 -325 0
387 -487 0
387 -486 0
387 -312 0
387 -485 0
387 -484 0
387 -483 0
387 -328 0
387 -482 0
387 -481 0
387 -443 0
387 -480 0
387 -495 0
387 -23 0
387 -22 0
-387 324 325 487 486 312 485 484 483 328 482 481 443 480 495 23 22 0
388 -330 0
388 -415 0
388 -348 0
388 -347 0
388 -350 0
388 -414 0
388 -329 0
388 -328 0
388 -386 0
388 -413 0
388 -412 0
388 -419 0
388 -418 0
-388 330 415 348 347 350 414 329 328 386 413 412 419 418 0
389 -426 0
389 -339 0
-389 426 339 0
390 -189 0
390 -188 0
-390 189 188 0
391 -334 0
391 -333 0
391 -332 0
-391 334 333 332 0
392 -397 0
392 -460 0
392 -433 0
392 -211 0
392 -297 0
392 -298 0
392 -293 0
392 -295 0
-392 397 460 433 211 297 298 293 295 0
393 -193 0
393 -192 0
-393 193 192 0
394 -399 0
394 -339 0
-394 399 339 0
395 -390 0
395 -341 0
-395 390 341 0
396 -113 0
396 -106 0
396 -105 0
-396 113 106 105 0
397 -154 0
397 -155 0
-397 154 155 0
398 -427 0
398 -433 0
398 -438 0
398 -211 0
398 -298 0
398 -292 0
398 -294 0
398 -295 0
-398 427 433 438 211 298 292 294 295 0
399 -132 0
399 -133 0
-399 132 133 0
-400 373 0
-400 370 0
-400 432 0
-400 434 0
400 -373 -370 -432 -434 0
-401 373 0
-401 370 0
-401 429 0
-401 439 0
401 -373 -370 -429 -439 0
402 -136 0
402 -185 0
-402 136 185 0
403 -20 0
403 -16 0
-403 20 16 0
404 -151 0
404 -112 0
-404 151 112 0
-405 373 0
-405 370 0
-405 435 0
-405 403 0
405 -373 -370 -435 -403 0
-406 404 0
406 -404 0
-407 373 0
-407 406 0
407 -373 -406 0
408 -325 0
408 -381 0
408 -382 0
408 -463 0
408 -487 0
408 -484 0
408 -483 0
408 -475 0
408 -462 0
408 -383 0
408 -336 0
408 -314 0
408 -461 0
408 -14 0
408 -13 0
-408 325 381 382 463 487 484 483 475 462 383 336 314 461 14 13 0
409 -356 0
409 -381 0
409 -376 0
409 -319 0
409 -323 0
409 -371 0
409 -401 0
-409 356 381 376 319 323 371 401 0
-410 409 0
-410 474 0
410 -409 -474 0
411 -324 0
411 -325 0
411 -487 0
411 -486 0
411 -312 0
411 -485 0
411 -471 0
411 -455 0
411 -484 0
411 -483 0
411 -328 0
411 -344 0
411 -318 0
411 -480 0
411 -495 0
411 -255 0
411 -251 0
-411 324 325 487 486 312 485 471 455 484 483 328 344 318 480 495 255 251 0
-412 408 0
-412 465 0
412 -408 -465 0
-413 466 0
-413 469 0
413 -466 -469 0
414 -278 0
414 -145 0
414 -144 0
414 -102 0
414 -1 0
414 -242 0
-414 278 145 144 102 1 242 0
415 -272 0
415 -271 0
415 -274 0
415 -273 0
415 -260 0
-415 272 271 274 273 260 0
416 -64 0
416 -100 0
-416 64 100 0
417 -416 0
417 -421 0
-417 416 421 0
-418 467 0
-418 296 0
418 -467 -296 0
-419 420 0
-419 448 0
419 -420 -448 0
420 -463 0
420 -484 0
420 -483 0
420 -407 0
420 -462 0
420 -13 0
-420 463 484 483 407 462 13 0
-421 373 0
-421 432 0
-421 434 0
421 -373 -432 -434 0
422 -322 0
422 -321 0
-422 322 321 0
424 -493 0
424 -433 0
424 -438 0
424 -297 0
424 -298 0
424 -299 0
424 -293 0
424 -294 0
-424 493 433 438 297 298 299 293 294 0
425 -460 0
425 -492 0
425 -433 0
425 -299 0
425 -292 0
425 -293 0
425 -294 0
425 -295 0
-425 460 492 433 299 292 293 294 295 0
426 -68 0
426 -65 0
-426 68 65 0
427 -220 0
427 -195 0
-427 220 195 0
-428 431 0
428 -431 0
429 -137 0
429 -172 0
-429 137 172 0
-430 353 0
-430 161 0
430 -353 -161 0
431 -116 0
431 -115 0
431 -114 0
-431 116 115 114 0
432 -28 0
432 -172 0
-432 28 172 0
439 -17 0
439 -16 0
-439 17 16 0
434 -18 0
434 -16 0
-434 18 16 0
435 -21 0
435 -138 0
-435 21 138 0
436 -134 0
436 -135 0
-436 134 135 0
437 -69 0
437 -70 0
437 -67 0
-437 69 70 67 0
438 -282 0
438 -281 0
-438 282 281 0
440 -325 0
440 -381 0
440 -382 0
440 -463 0
440 -487 0
440 -484 0
440 -483 0
440 -475 0
440 -347 0
440 -350 0
440 -320 0
440 -365 0
440 -314 0
440 -461 0
440 -301 0
440 -256 0
-440 325 381 382 463 487 484 483 475 347 350 320 365 314 461 301 256 0
-441 330 0
441 -330 0
442 -415 0
442 -348 0
442 -347 0
442 -350 0
442 -414 0
442 -443 0
442 -413 0
442 -453 0
-442 415 348 347 350 414 443 413 453 0
-443 424 0
-443 296 0
443 -424 -296 0
444 -354 0
444 -475 0
444 -472 0
444 -473 0
444 -478 0
444 -430 0
444 -400 0
-444 354 475 472 473 478 430 400 0
445 -471 0
445 -455 0
445 -456 0
445 -449 0
-445 471 455 456 449 0
446 -330 0
446 -454 0
446 -329 0
446 -328 0
446 -336 0
446 -335 0
446 -505 0
-446 330 454 329 328 336 335 505 0
447 -501 0
447 -457 0
447 -500 0
447 -499 0
447 -498 0
447 -497 0
447 -496 0
-447 501 457 500 499 498 497 496 0
448 -325 0
448 -381 0
448 -382 0
448 -487 0
448 -475 0
448 -405 0
448 -383 0
448 -479 0
448 -14 0
-448 325 381 382 487 475 405 383 479 14 0
-449 446 0
-449 447 0
449 -446 -447 0
-450 502 0
-450 388 0
450 -502 -388 0
-451 331 0
-451 442 0
451 -331 -442 0
-452 378 0
452 -378 0
-453 452 0
-453 459 0
453 -452 -459 0
454 -236 0
454 -146 0
-454 236 146 0
455 -162 0
455 -163 0
-455 162 163 0
456 -31 0
456 -72 0
456 -71 0
456 -74 0
456 -73 0
456 -76 0
456 -75 0
456 -78 0
456 -77 0
-456 31 72 71 74 73 76 75 78 77 0
457 -259 0
457 -235 0
-457 259 235 0
458 -325 0
458 -381 0
458 -382 0
458 -487 0
458 -475 0
458 -350 0
458 -405 0
458 -383 0
458 -479 0
458 -14 0
-458 325 381 382 487 475 350 405 383 479 14 0
459 -324 0
459 -325 0
459 -487 0
459 -486 0
459 -312 0
459 -485 0
459 -484 0
459 -483 0
459 -328 0
459 -482 0
459 -481 0
459 -480 0
459 -495 0
459 -23 0
459 -22 0
-459 324 325 487 486 312 485 484 483 328 482 481 480 495 23 22 0
460 -84 0
460 -83 0
-460 84 83 0
-461 373 0
-461 488 0
461 -373 -488 0
-462 422 0
-462 300 0
462 -422 -300 0
463 -103 0
463 -153 0
463 -157 0
463 -25 0
463 -24 0
463 -27 0
463 -26 0
463 -29 0
463 -187 0
463 -208 0
463 -107 0
463 -210 0
463 -209 0
463 -122 0
463 -104 0
463 -120 0
463 -121 0
463 -126 0
-463 103 153 157 25 24 27 26 29 187 208 107 210 209 122 104 120 121 126 0
464 -325 0
464 -381 0
464 -382 0
464 -463 0
464 -487 0
464 -484 0
464 -483 0
464 -475 0
464 -347 0
464 -350 0
464 -462 0
464 -383 0
464 -314 0
464 -461 0
464 -14 0
464 -13 0
-464 325 381 382 463 487 484 483 475 347 350 462 383 314 461 14 13 0
-465 501 0
465 -501 0
466 -487 0
466 -486 0
466 -312 0
466 -485 0
466 -484 0
466 -400 0
466 -481 0
466 -410 0
466 -23 0
-466 487 486 312 485 484 400 481 410 23 0
467 -460 0
467 -492 0
467 -493 0
467 -433 0
467 -438 0
467 -297 0
467 -298 0
467 -299 0
467 -292 0
467 -293 0
467 -294 0
467 -295 0
-467 460 492 493 433 438 297 298 299 292 293 294 295 0
-468 370 0
-468 361 0
468 -370 -361 0
469 -324 0
469 -325 0
469 -483 0
469 -468 0
469 -482 0
469 -22 0
-469 324 325 483 468 482 22 0
433 -280 0
433 -279 0
-433 280 279 0
470 -471 0
470 -455 0
470 -454 0
470 -457 0
470 -456 0
470 -451 0
470 -450 0
-470 471 455 454 457 456 451 450 0
471 -170 0
471 -171 0
-471 170 171 0
472 -264 0
472 -265 0
-472 264 265 0
473 -262 0
473 -263 0
-473 262 263 0
474 -354 0
474 -475 0
474 -472 0
474 -473 0
474 -478 0
474 -430 0
-474 354 475 472 473 478 430 0
475 -266 0
475 -50 0
-475 266 50 0
476 -376 0
476 -437 0
476 -396 0
476 -486 0
476 -472 0
476 -355 0
476 -374 0
-476 376 437 396 486 472 355 374 0
477 -319 0
477 -312 0
477 -473 0
477 -431 0
477 -313 0
477 -504 0
-477 319 312 473 431 313 504 0
478 -101 0
478 -15 0
478 -261 0
-478 101 15 261 0
-479 476 0
-479 477 0
479 -476 -477 0
-480 409 0
-480 444 0
480 -409 -444 0
-481 394 0
-481 250 0
481 -394 -250 0
-482 346 0
-482 252 0
482 -346 -252 0
483 -166 0
483 -167 0
-483 166 167 0
484 -164 0
484 -165 0
-484 164 165 0
485 -62 0
485 -54 0
485 -175 0
485 -12 0
485 -148 0
485 -108 0
485 -141 0
485 -140 0
485 -152 0
485 -147 0
485 -92 0
485 -93 0
485 -94 0
485 -95 0
485 -96 0
485 -184 0
485 -98 0
485 -99 0
485 -89 0
485 -90 0
485 -59 0
-485 62 54 175 12 148 108 141 140 152 147 92 93 94 95 96 184 98 99 89 90 59 0
486 -60 0
486 -55 0
-486 60 55 0
487 -237 0
487 -57 0
487 -56 0
487 -52 0
487 -51 0
487 -4 0
487 -5 0
487 -2 0
-487 237 57 56 52 51 4 5 2 0
488 -404 0
488 -491 0
-488 404 491 0
489 -463 0
489 -484 0
489 -483 0
489 -347 0
489 -407 0
489 -320 0
489 -256 0
-489 463 484 483 347 407 320 256 0
490 -325 0
490 -381 0
490 -382 0
490 -487 0
490 -475 0
490 -350 0
490 -405 0
490 -365 0
490 -479 0
490 -301 0
-490 325 381 382 487 475 350 405 365 479 301 0
-491 370 0
-491 435 0
-491 403 0
491 -370 -435 -403 0
492 -86 0
492 -85 0
-492 86 85 0
493 -275 0
493 -283 0
-493 275 283 0
-494 379 0
-494 380 0
494 -379 -380 0
-495 370 0
-495 417 0
495 -370 -417 0
-496 489 0
-496 490 0
496 -489 -490 0
-497 440 0
-497 441 0
497 -440 -441 0
-498 392 0
-498 296 0
498 -392 -296 0
499 -156 0
499 -91 0
-499 156 91 0
500 -158 0
500 -159 0
500 -160 0
500 -248 0
500 -150 0
-500 158 159 160 248 150 0
501 -44 0
501 -45 0
501 -40 0
501 -41 0
501 -88 0
501 -87 0
-501 44 45 40 41 88 87 0
502 -501 0
502 -500 0
502 -499 0
502 -498 0
502 -497 0
502 -496 0
-502 501 500 499 498 497 496 0
-503 437 0
503 -437 0
-504 503 0
-504 186 0
504 -503 -186 0
-505 458 0
-505 316 0
505 -458 -316 0
